p edge 100 2434
e 2 1 392
e 3 1 415
e 3 2 368
e 4 2 216
e 5 1 452
e 5 4 325
e 6 1 286
e 6 4 416
e 7 1 248
e 7 3 285
e 7 6 284
e 8 2 379
e 8 4 323
e 8 5 458
e 9 1 275
e 9 4 467
e 9 6 478
e 9 7 471
e 10 1 294
e 10 2 234
e 10 3 224
e 10 4 329
e 10 5 268
e 10 6 353
e 10 8 351
e 11 1 300
e 11 4 339
e 11 5 464
e 11 7 386
e 12 8 338
e 13 1 258
e 13 3 378
e 13 5 301
e 14 3 213
e 14 4 362
e 14 6 233
e 14 8 444
e 14 9 337
e 14 11 464
e 14 12 293
e 15 3 214
e 15 4 445
e 15 5 381
e 15 7 436
e 15 8 318
e 15 9 338
e 15 10 241
e 15 13 421
e 15 14 300
e 16 4 444
e 16 5 434
e 16 7 212
e 16 8 419
e 16 9 441
e 16 10 306
e 16 11 277
e 16 12 217
e 16 13 358
e 16 14 476
e 16 15 207
e 17 1 255
e 17 2 367
e 17 4 318
e 17 6 207
e 17 9 207
e 17 11 319
e 17 12 373
e 17 13 201
e 17 15 216
e 17 16 392
e 18 2 257
e 18 5 365
e 18 10 387
e 18 13 377
e 18 15 234
e 18 16 218
e 19 3 398
e 19 4 364
e 19 7 225
e 19 8 293
e 19 10 409
e 19 14 382
e 19 15 209
e 19 16 308
e 19 17 223
e 20 3 267
e 20 5 290
e 20 6 349
e 20 7 406
e 20 9 405
e 20 12 391
e 20 14 204
e 20 16 401
e 20 17 250
e 20 19 289
e 21 1 332
e 21 2 260
e 21 5 337
e 21 7 415
e 21 8 328
e 21 9 235
e 21 10 411
e 21 11 345
e 21 14 237
e 21 16 409
e 21 17 275
e 21 19 241
e 21 20 220
e 22 1 375
e 22 2 405
e 22 3 400
e 22 4 360
e 22 5 354
e 22 6 422
e 22 8 375
e 22 9 277
e 22 16 224
e 22 19 211
e 22 20 226
e 23 1 274
e 23 2 322
e 23 5 280
e 23 7 263
e 23 9 264
e 23 10 328
e 23 11 388
e 23 13 222
e 23 16 273
e 23 17 438
e 23 19 390
e 24 3 357
e 24 9 385
e 24 10 320
e 24 11 391
e 24 14 387
e 24 15 454
e 24 16 431
e 24 17 282
e 24 18 209
e 24 21 259
e 25 5 440
e 25 6 287
e 25 7 202
e 25 8 441
e 25 10 413
e 25 11 461
e 25 12 330
e 25 19 251
e 25 22 397
e 25 24 478
e 26 3 328
e 26 5 318
e 26 7 375
e 26 8 250
e 26 11 262
e 26 14 203
e 26 17 239
e 26 19 212
e 26 22 218
e 26 23 289
e 27 1 442
e 27 2 215
e 27 3 381
e 27 6 477
e 27 7 277
e 27 8 239
e 27 10 281
e 27 11 205
e 27 14 207
e 27 16 331
e 27 17 323
e 27 23 374
e 28 1 381
e 28 3 441
e 28 5 462
e 28 7 276
e 28 9 202
e 28 10 475
e 28 12 399
e 28 13 389
e 28 14 299
e 28 16 264
e 28 17 313
e 28 18 356
e 28 19 308
e 28 20 413
e 28 23 319
e 28 25 285
e 29 1 439
e 29 7 389
e 29 12 224
e 29 14 449
e 29 17 347
e 29 18 227
e 29 23 308
e 29 24 226
e 29 25 342
e 29 26 433
e 30 1 210
e 30 2 400
e 30 3 315
e 30 5 427
e 30 7 214
e 30 9 375
e 30 10 423
e 30 11 275
e 30 13 206
e 30 16 285
e 30 18 411
e 30 20 478
e 30 21 347
e 30 22 219
e 30 24 358
e 30 25 473
e 30 28 459
e 30 29 384
e 31 2 400
e 31 3 286
e 31 5 355
e 31 7 208
e 31 12 418
e 31 14 460
e 31 15 334
e 31 18 324
e 31 19 336
e 31 22 366
e 31 23 213
e 31 24 386
e 31 25 206
e 31 26 469
e 31 27 431
e 32 1 436
e 32 2 240
e 32 3 281
e 32 4 443
e 32 5 332
e 32 6 275
e 32 8 368
e 32 9 255
e 32 11 319
e 32 12 368
e 32 13 228
e 32 14 330
e 32 15 468
e 32 20 423
e 32 21 298
e 32 24 385
e 32 25 202
e 33 2 340
e 33 5 419
e 33 7 362
e 33 8 365
e 33 9 478
e 33 10 226
e 33 11 480
e 33 14 301
e 33 15 209
e 33 16 412
e 33 17 303
e 33 22 414
e 33 24 430
e 33 25 387
e 33 26 304
e 34 3 212
e 34 4 477
e 34 5 335
e 34 7 356
e 34 8 312
e 34 9 308
e 34 10 474
e 34 11 324
e 34 12 293
e 34 13 374
e 34 18 442
e 34 21 474
e 34 22 205
e 34 23 387
e 34 24 427
e 34 26 303
e 34 32 261
e 34 33 433
e 35 1 412
e 35 3 284
e 35 4 313
e 35 7 327
e 35 9 479
e 35 10 403
e 35 11 345
e 35 12 313
e 35 13 356
e 35 14 362
e 35 15 232
e 35 17 380
e 35 21 291
e 35 23 442
e 35 25 237
e 35 30 446
e 35 32 310
e 35 33 355
e 36 1 252
e 36 2 362
e 36 4 480
e 36 6 283
e 36 7 280
e 36 9 271
e 36 17 472
e 36 18 216
e 36 19 266
e 36 20 383
e 36 22 425
e 36 25 480
e 36 26 287
e 36 28 271
e 36 29 466
e 36 32 316
e 37 1 281
e 37 4 475
e 37 6 229
e 37 7 305
e 37 9 364
e 37 10 213
e 37 12 277
e 37 14 213
e 37 15 219
e 37 16 412
e 37 17 269
e 37 18 270
e 37 19 292
e 37 20 299
e 37 21 303
e 37 23 272
e 37 24 266
e 37 28 202
e 37 29 464
e 37 30 207
e 37 31 412
e 37 33 475
e 38 7 370
e 38 8 417
e 38 10 276
e 38 12 469
e 38 13 307
e 38 14 247
e 38 19 300
e 38 21 395
e 38 23 237
e 38 27 404
e 38 32 238
e 38 33 229
e 38 34 237
e 38 36 382
e 38 37 222
e 39 3 458
e 39 5 312
e 39 7 394
e 39 10 263
e 39 11 206
e 39 12 418
e 39 19 451
e 39 20 460
e 39 22 239
e 39 23 262
e 39 29 423
e 39 31 475
e 39 32 220
e 39 33 400
e 39 37 453
e 39 38 295
e 40 1 474
e 40 2 367
e 40 3 301
e 40 5 435
e 40 8 480
e 40 10 368
e 40 11 203
e 40 12 461
e 40 13 467
e 40 16 223
e 40 19 377
e 40 20 383
e 40 23 298
e 40 24 366
e 40 25 312
e 40 28 405
e 40 33 214
e 40 34 205
e 40 36 347
e 40 37 326
e 41 2 216
e 41 7 441
e 41 9 385
e 41 13 470
e 41 19 434
e 41 21 448
e 41 22 229
e 41 24 395
e 41 25 327
e 41 32 411
e 41 33 365
e 41 34 321
e 41 35 231
e 41 37 431
e 41 39 265
e 42 1 389
e 42 2 416
e 42 5 439
e 42 8 383
e 42 9 262
e 42 14 370
e 42 15 314
e 42 16 352
e 42 17 246
e 42 19 243
e 42 21 217
e 42 22 391
e 42 24 456
e 42 27 271
e 42 32 447
e 42 35 423
e 42 37 383
e 42 40 281
e 43 8 346
e 43 10 455
e 43 12 265
e 43 14 375
e 43 16 405
e 43 17 458
e 43 18 315
e 43 19 285
e 43 21 355
e 43 22 477
e 43 23 371
e 43 26 324
e 43 28 468
e 43 29 325
e 43 32 328
e 43 37 269
e 43 38 279
e 43 40 389
e 43 42 240
e 44 5 292
e 44 7 218
e 44 8 388
e 44 10 315
e 44 11 273
e 44 12 389
e 44 13 409
e 44 16 307
e 44 17 259
e 44 22 324
e 44 24 228
e 44 26 207
e 44 30 384
e 44 31 395
e 44 32 364
e 44 33 432
e 44 34 456
e 44 36 339
e 44 37 335
e 44 40 232
e 44 41 433
e 44 43 458
e 45 4 303
e 45 7 279
e 45 8 264
e 45 9 313
e 45 10 218
e 45 16 243
e 45 17 427
e 45 19 357
e 45 23 280
e 45 24 343
e 45 25 264
e 45 30 402
e 45 32 411
e 45 34 250
e 45 35 279
e 45 36 437
e 45 37 445
e 45 38 431
e 45 39 457
e 45 42 476
e 45 43 236
e 45 44 278
e 46 3 469
e 46 5 295
e 46 6 458
e 46 9 455
e 46 16 410
e 46 17 474
e 46 18 267
e 46 19 240
e 46 22 416
e 46 23 441
e 46 24 343
e 46 25 438
e 46 27 381
e 46 28 250
e 46 29 221
e 46 31 425
e 46 33 377
e 46 34 412
e 46 36 426
e 46 38 389
e 46 40 256
e 46 41 263
e 46 42 410
e 46 45 353
e 47 2 257
e 47 4 337
e 47 8 480
e 47 10 442
e 47 12 374
e 47 16 283
e 47 17 249
e 47 18 472
e 47 22 383
e 47 25 213
e 47 27 402
e 47 30 257
e 47 31 256
e 47 33 343
e 47 35 378
e 47 37 385
e 47 38 270
e 47 40 234
e 47 42 205
e 47 43 286
e 47 46 249
e 48 3 438
e 48 6 263
e 48 7 400
e 48 8 364
e 48 9 225
e 48 10 376
e 48 15 368
e 48 16 451
e 48 17 212
e 48 19 354
e 48 21 473
e 48 22 420
e 48 24 386
e 48 27 434
e 48 29 300
e 48 35 347
e 48 36 399
e 48 37 410
e 48 38 450
e 48 41 459
e 48 42 322
e 48 47 472
e 49 1 383
e 49 6 458
e 49 9 442
e 49 10 402
e 49 11 332
e 49 12 420
e 49 13 224
e 49 15 336
e 49 17 405
e 49 18 452
e 49 20 429
e 49 25 367
e 49 26 200
e 49 29 410
e 49 30 353
e 49 32 420
e 49 34 368
e 49 36 263
e 49 38 477
e 49 41 413
e 49 42 426
e 50 2 337
e 50 7 298
e 50 8 362
e 50 12 407
e 50 18 250
e 50 19 455
e 50 21 385
e 50 23 423
e 50 27 213
e 50 28 373
e 50 29 450
e 50 30 478
e 50 34 444
e 50 35 303
e 50 36 455
e 50 38 372
e 50 40 431
e 50 42 415
e 50 43 310
e 50 44 203
e 50 49 318
e 51 2 264
e 51 3 292
e 51 5 475
e 51 8 360
e 51 11 396
e 51 14 306
e 51 15 300
e 51 17 267
e 51 20 201
e 51 22 279
e 51 23 390
e 51 25 459
e 51 27 385
e 51 28 435
e 51 30 243
e 51 31 391
e 51 35 250
e 51 36 312
e 51 37 344
e 51 42 205
e 51 44 290
e 51 45 209
e 51 47 352
e 51 48 341
e 52 1 426
e 52 3 282
e 52 7 356
e 52 8 459
e 52 9 356
e 52 10 264
e 52 20 209
e 52 21 470
e 52 22 207
e 52 23 302
e 52 24 370
e 52 25 462
e 52 30 202
e 52 31 204
e 52 35 205
e 52 37 400
e 52 39 404
e 52 40 342
e 52 41 202
e 52 42 373
e 52 44 362
e 52 48 295
e 52 49 367
e 52 50 267
e 53 2 283
e 53 5 266
e 53 6 253
e 53 7 338
e 53 12 472
e 53 13 356
e 53 14 338
e 53 17 478
e 53 18 201
e 53 20 438
e 53 22 478
e 53 23 358
e 53 25 436
e 53 27 420
e 53 29 315
e 53 30 231
e 53 31 260
e 53 35 471
e 53 36 406
e 53 38 416
e 53 39 456
e 53 40 212
e 53 44 282
e 53 45 407
e 53 48 227
e 53 49 263
e 54 1 283
e 54 2 307
e 54 3 338
e 54 4 215
e 54 6 231
e 54 8 433
e 54 9 272
e 54 10 387
e 54 11 349
e 54 14 244
e 54 15 346
e 54 16 220
e 54 18 321
e 54 20 305
e 54 21 390
e 54 23 295
e 54 24 440
e 54 25 456
e 54 26 341
e 54 27 397
e 54 29 424
e 54 34 295
e 54 35 231
e 54 36 385
e 54 37 202
e 54 40 249
e 54 41 390
e 54 42 386
e 54 43 214
e 54 44 388
e 54 45 236
e 54 46 358
e 54 48 336
e 54 53 369
e 55 1 459
e 55 2 208
e 55 6 263
e 55 8 340
e 55 10 384
e 55 12 206
e 55 14 368
e 55 15 329
e 55 16 266
e 55 17 334
e 55 21 334
e 55 22 396
e 55 24 324
e 55 26 451
e 55 27 322
e 55 31 405
e 55 33 412
e 55 34 315
e 55 35 443
e 55 37 457
e 55 40 411
e 55 43 375
e 55 47 312
e 55 50 410
e 55 51 256
e 55 53 334
e 55 54 459
e 56 1 328
e 56 3 385
e 56 4 316
e 56 5 418
e 56 7 473
e 56 10 292
e 56 11 375
e 56 12 216
e 56 13 256
e 56 15 230
e 56 17 349
e 56 22 314
e 56 24 210
e 56 30 310
e 56 31 440
e 56 32 419
e 56 34 205
e 56 37 479
e 56 38 441
e 56 41 228
e 56 42 246
e 56 43 273
e 56 44 208
e 56 45 395
e 56 46 252
e 56 48 213
e 56 50 362
e 56 51 427
e 56 54 376
e 56 55 465
e 57 5 246
e 57 9 299
e 57 11 359
e 57 13 471
e 57 14 409
e 57 15 389
e 57 16 441
e 57 17 371
e 57 18 220
e 57 21 216
e 57 22 290
e 57 24 320
e 57 26 208
e 57 27 475
e 57 28 340
e 57 29 367
e 57 33 390
e 57 35 323
e 57 36 252
e 57 38 312
e 57 39 390
e 57 41 328
e 57 43 271
e 57 45 424
e 57 50 395
e 58 4 443
e 58 7 453
e 58 8 280
e 58 10 258
e 58 12 457
e 58 15 431
e 58 16 478
e 58 17 451
e 58 18 228
e 58 19 372
e 58 21 264
e 58 25 247
e 58 26 262
e 58 27 468
e 58 28 405
e 58 30 233
e 58 31 326
e 58 32 241
e 58 33 432
e 58 34 300
e 58 37 407
e 58 38 215
e 58 39 279
e 58 42 364
e 58 43 384
e 58 47 216
e 58 49 395
e 58 50 479
e 58 52 352
e 58 53 232
e 58 54 376
e 58 57 303
e 59 1 394
e 59 3 236
e 59 4 259
e 59 6 435
e 59 7 357
e 59 9 391
e 59 10 426
e 59 11 363
e 59 13 250
e 59 14 214
e 59 15 446
e 59 16 358
e 59 17 396
e 59 18 210
e 59 19 238
e 59 20 338
e 59 23 276
e 59 25 280
e 59 26 357
e 59 27 262
e 59 28 426
e 59 29 450
e 59 32 395
e 59 33 281
e 59 34 219
e 59 36 238
e 59 37 273
e 59 39 299
e 59 40 252
e 59 41 405
e 59 46 334
e 59 49 367
e 59 50 432
e 59 51 430
e 59 54 242
e 59 55 444
e 59 56 306
e 59 57 434
e 60 1 245
e 60 4 255
e 60 7 283
e 60 8 363
e 60 12 398
e 60 14 381
e 60 15 431
e 60 17 230
e 60 21 333
e 60 22 363
e 60 23 405
e 60 24 464
e 60 32 431
e 60 38 332
e 60 40 401
e 60 41 444
e 60 43 217
e 60 44 454
e 60 45 309
e 60 46 360
e 60 47 469
e 60 48 315
e 60 53 349
e 60 54 246
e 60 55 437
e 60 58 296
e 61 3 315
e 61 4 299
e 61 6 423
e 61 7 304
e 61 9 455
e 61 13 390
e 61 15 219
e 61 19 437
e 61 20 374
e 61 21 277
e 61 22 281
e 61 24 292
e 61 26 314
e 61 27 249
e 61 29 421
e 61 30 319
e 61 34 389
e 61 35 261
e 61 36 295
e 61 38 281
e 61 39 435
e 61 40 214
e 61 44 228
e 61 45 371
e 61 46 258
e 61 48 352
e 61 51 414
e 61 52 320
e 61 54 340
e 61 55 292
e 61 57 468
e 61 59 388
e 61 60 282
e 62 1 247
e 62 9 285
e 62 12 376
e 62 14 302
e 62 15 228
e 62 19 213
e 62 20 418
e 62 21 398
e 62 26 405
e 62 27 384
e 62 30 274
e 62 31 292
e 62 33 437
e 62 35 412
e 62 36 333
e 62 37 373
e 62 43 262
e 62 44 220
e 62 48 220
e 62 50 475
e 62 51 448
e 62 60 395
e 63 1 207
e 63 9 308
e 63 11 255
e 63 13 314
e 63 15 435
e 63 16 267
e 63 17 402
e 63 18 421
e 63 20 253
e 63 21 227
e 63 23 333
e 63 26 249
e 63 27 442
e 63 30 374
e 63 34 285
e 63 36 391
e 63 37 307
e 63 39 290
e 63 40 264
e 63 42 286
e 63 43 406
e 63 44 371
e 63 46 222
e 63 48 267
e 63 49 305
e 63 52 359
e 63 56 458
e 63 60 471
e 63 61 364
e 64 5 464
e 64 7 287
e 64 14 328
e 64 16 408
e 64 17 443
e 64 20 344
e 64 21 440
e 64 22 292
e 64 23 391
e 64 25 466
e 64 26 381
e 64 28 384
e 64 29 287
e 64 33 239
e 64 36 260
e 64 38 429
e 64 40 320
e 64 41 412
e 64 43 348
e 64 44 328
e 64 46 355
e 64 47 316
e 64 51 216
e 64 57 431
e 64 61 290
e 64 62 380
e 64 63 397
e 65 2 250
e 65 3 328
e 65 5 368
e 65 7 421
e 65 8 237
e 65 9 383
e 65 12 216
e 65 13 435
e 65 15 415
e 65 16 205
e 65 17 383
e 65 20 225
e 65 23 238
e 65 25 282
e 65 27 287
e 65 28 409
e 65 30 386
e 65 32 320
e 65 34 276
e 65 39 242
e 65 40 388
e 65 46 384
e 65 47 241
e 65 48 229
e 65 49 256
e 65 51 405
e 65 53 203
e 65 61 438
e 65 62 418
e 65 63 333
e 66 1 388
e 66 2 335
e 66 3 200
e 66 5 273
e 66 6 283
e 66 9 398
e 66 10 386
e 66 11 388
e 66 14 419
e 66 16 409
e 66 17 301
e 66 18 215
e 66 19 393
e 66 21 329
e 66 22 329
e 66 23 220
e 66 27 472
e 66 28 217
e 66 29 427
e 66 38 222
e 66 39 402
e 66 40 426
e 66 41 257
e 66 43 225
e 66 45 220
e 66 46 282
e 66 48 218
e 66 51 451
e 66 52 235
e 66 54 371
e 66 56 373
e 66 57 314
e 66 58 217
e 66 61 450
e 66 62 451
e 67 1 300
e 67 3 404
e 67 4 288
e 67 6 304
e 67 8 383
e 67 9 445
e 67 10 228
e 67 14 252
e 67 15 335
e 67 18 472
e 67 22 421
e 67 24 280
e 67 28 230
e 67 29 323
e 67 30 420
e 67 32 202
e 67 33 319
e 67 34 283
e 67 36 412
e 67 38 447
e 67 40 206
e 67 42 203
e 67 43 436
e 67 44 310
e 67 47 378
e 67 49 307
e 67 51 432
e 67 53 234
e 67 54 327
e 67 56 461
e 67 57 244
e 67 58 259
e 67 59 367
e 67 61 355
e 67 63 234
e 68 3 317
e 68 5 342
e 68 6 252
e 68 7 398
e 68 13 239
e 68 14 393
e 68 15 460
e 68 16 226
e 68 18 325
e 68 26 469
e 68 27 234
e 68 28 294
e 68 29 441
e 68 30 211
e 68 31 288
e 68 32 398
e 68 36 410
e 68 37 268
e 68 38 459
e 68 40 247
e 68 41 416
e 68 46 287
e 68 47 401
e 68 50 357
e 68 51 360
e 68 52 246
e 68 57 308
e 68 59 310
e 68 62 435
e 68 64 344
e 69 4 380
e 69 6 456
e 69 7 327
e 69 9 245
e 69 11 303
e 69 12 344
e 69 15 272
e 69 16 345
e 69 18 382
e 69 19 350
e 69 20 446
e 69 21 373
e 69 22 336
e 69 26 347
e 69 27 279
e 69 28 341
e 69 29 310
e 69 31 364
e 69 32 469
e 69 36 231
e 69 38 354
e 69 39 365
e 69 49 214
e 69 51 259
e 69 52 409
e 69 53 469
e 69 54 357
e 69 56 460
e 69 57 414
e 69 60 347
e 69 62 237
e 69 63 219
e 69 67 370
e 70 3 272
e 70 5 355
e 70 6 258
e 70 8 229
e 70 9 284
e 70 11 250
e 70 12 338
e 70 15 431
e 70 16 260
e 70 17 330
e 70 19 326
e 70 22 227
e 70 31 206
e 70 32 291
e 70 34 313
e 70 36 397
e 70 38 250
e 70 41 201
e 70 43 413
e 70 46 210
e 70 47 440
e 70 51 345
e 70 53 263
e 70 57 349
e 70 58 368
e 70 59 229
e 70 62 469
e 70 63 373
e 70 64 217
e 70 66 408
e 70 67 365
e 70 68 480
e 70 69 205
e 71 2 326
e 71 3 304
e 71 6 363
e 71 7 386
e 71 8 429
e 71 9 245
e 71 11 285
e 71 12 446
e 71 13 469
e 71 14 347
e 71 15 262
e 71 16 406
e 71 17 472
e 71 18 216
e 71 23 287
e 71 24 215
e 71 27 311
e 71 28 327
e 71 32 462
e 71 33 422
e 71 36 304
e 71 39 289
e 71 41 364
e 71 45 308
e 71 46 403
e 71 47 211
e 71 48 247
e 71 49 391
e 71 50 226
e 71 54 370
e 71 55 426
e 71 57 459
e 71 58 214
e 71 59 343
e 71 60 282
e 71 64 428
e 71 65 446
e 71 68 343
e 71 69 200
e 72 1 470
e 72 2 406
e 72 3 272
e 72 5 261
e 72 8 243
e 72 9 333
e 72 11 438
e 72 12 398
e 72 14 463
e 72 15 355
e 72 18 392
e 72 20 279
e 72 21 272
e 72 24 413
e 72 25 351
e 72 27 371
e 72 31 390
e 72 32 391
e 72 35 407
e 72 36 310
e 72 38 344
e 72 39 340
e 72 41 317
e 72 44 315
e 72 46 379
e 72 48 227
e 72 49 269
e 72 51 474
e 72 56 277
e 72 57 315
e 72 58 455
e 72 59 338
e 72 60 234
e 72 63 467
e 72 64 445
e 72 65 265
e 72 69 437
e 73 2 428
e 73 4 230
e 73 6 360
e 73 7 288
e 73 9 312
e 73 11 441
e 73 12 265
e 73 18 298
e 73 20 251
e 73 23 263
e 73 24 263
e 73 25 386
e 73 26 368
e 73 30 241
e 73 33 476
e 73 35 403
e 73 38 201
e 73 40 447
e 73 41 309
e 73 42 301
e 73 44 305
e 73 48 386
e 73 52 453
e 73 53 479
e 73 57 406
e 73 58 270
e 73 59 453
e 73 60 345
e 73 61 259
e 73 62 262
e 73 63 334
e 73 66 276
e 73 67 328
e 73 69 411
e 73 70 361
e 73 71 251
e 73 72 410
e 74 1 346
e 74 3 405
e 74 4 342
e 74 6 367
e 74 7 297
e 74 8 252
e 74 9 317
e 74 10 429
e 74 11 346
e 74 12 345
e 74 14 364
e 74 15 476
e 74 17 457
e 74 18 294
e 74 22 418
e 74 23 382
e 74 24 220
e 74 25 369
e 74 28 478
e 74 29 206
e 74 30 215
e 74 33 381
e 74 35 446
e 74 36 277
e 74 38 455
e 74 45 464
e 74 48 212
e 74 49 453
e 74 57 379
e 74 59 472
e 74 62 342
e 74 63 314
e 74 67 395
e 74 70 360
e 75 2 400
e 75 3 244
e 75 4 472
e 75 5 386
e 75 8 352
e 75 12 454
e 75 13 460
e 75 14 213
e 75 19 417
e 75 21 227
e 75 22 294
e 75 23 376
e 75 24 397
e 75 25 452
e 75 28 305
e 75 29 251
e 75 30 226
e 75 31 228
e 75 35 238
e 75 37 451
e 75 39 249
e 75 44 406
e 75 45 264
e 75 46 309
e 75 53 438
e 75 56 329
e 75 58 326
e 75 60 472
e 75 61 240
e 75 64 311
e 75 67 366
e 75 68 416
e 75 69 313
e 75 70 370
e 75 72 415
e 75 74 253
e 76 1 478
e 76 2 390
e 76 3 207
e 76 4 437
e 76 6 371
e 76 8 292
e 76 11 427
e 76 12 201
e 76 16 389
e 76 18 426
e 76 19 310
e 76 24 453
e 76 25 293
e 76 26 477
e 76 29 405
e 76 35 441
e 76 36 420
e 76 38 262
e 76 39 437
e 76 46 446
e 76 47 276
e 76 52 399
e 76 53 372
e 76 54 203
e 76 56 361
e 76 57 364
e 76 58 442
e 76 60 219
e 76 62 325
e 76 66 390
e 76 67 457
e 76 68 255
e 76 72 340
e 76 73 391
e 77 4 372
e 77 5 415
e 77 6 354
e 77 7 326
e 77 8 314
e 77 11 378
e 77 12 223
e 77 14 352
e 77 18 331
e 77 21 258
e 77 23 268
e 77 24 360
e 77 25 376
e 77 28 281
e 77 30 308
e 77 31 284
e 77 35 391
e 77 36 339
e 77 37 228
e 77 38 261
e 77 39 466
e 77 40 447
e 77 41 291
e 77 42 256
e 77 43 239
e 77 47 299
e 77 50 407
e 77 52 427
e 77 54 220
e 77 56 356
e 77 59 300
e 77 64 210
e 77 65 251
e 77 69 387
e 77 72 222
e 77 73 258
e 77 74 446
e 77 75 397
e 78 6 466
e 78 7 317
e 78 13 437
e 78 14 253
e 78 15 219
e 78 17 409
e 78 18 380
e 78 20 355
e 78 21 299
e 78 22 263
e 78 24 233
e 78 25 354
e 78 28 330
e 78 31 307
e 78 38 221
e 78 39 447
e 78 42 204
e 78 44 438
e 78 45 332
e 78 46 249
e 78 49 453
e 78 55 416
e 78 56 471
e 78 58 258
e 78 59 440
e 78 64 469
e 78 65 450
e 78 66 420
e 78 67 243
e 78 68 222
e 78 70 226
e 78 71 411
e 78 73 255
e 78 75 421
e 78 76 213
e 78 77 417
e 79 2 348
e 79 5 311
e 79 6 346
e 79 8 225
e 79 10 346
e 79 11 312
e 79 14 408
e 79 15 369
e 79 18 406
e 79 19 297
e 79 20 393
e 79 23 396
e 79 26 463
e 79 27 457
e 79 29 370
e 79 31 389
e 79 33 440
e 79 35 277
e 79 37 219
e 79 38 470
e 79 41 399
e 79 43 394
e 79 45 395
e 79 49 221
e 79 53 267
e 79 56 204
e 79 58 321
e 79 61 217
e 79 63 422
e 79 64 446
e 79 66 443
e 79 68 346
e 79 69 248
e 79 74 449
e 79 76 200
e 80 1 393
e 80 3 373
e 80 5 456
e 80 9 382
e 80 13 222
e 80 17 297
e 80 19 365
e 80 20 224
e 80 24 466
e 80 25 253
e 80 28 393
e 80 32 461
e 80 34 376
e 80 43 290
e 80 46 346
e 80 49 242
e 80 54 439
e 80 55 245
e 80 57 324
e 80 58 414
e 80 60 432
e 80 62 398
e 80 64 369
e 80 66 223
e 80 67 352
e 80 70 324
e 80 74 374
e 80 77 271
e 80 78 294
e 81 1 233
e 81 2 212
e 81 4 309
e 81 8 296
e 81 13 363
e 81 14 263
e 81 19 475
e 81 20 331
e 81 21 332
e 81 24 302
e 81 25 267
e 81 26 316
e 81 28 220
e 81 29 470
e 81 30 211
e 81 31 200
e 81 32 266
e 81 34 326
e 81 36 360
e 81 37 243
e 81 38 402
e 81 39 406
e 81 40 273
e 81 41 296
e 81 42 350
e 81 44 428
e 81 46 403
e 81 50 439
e 81 51 265
e 81 53 280
e 81 54 362
e 81 57 465
e 81 60 465
e 81 61 353
e 81 62 389
e 81 65 233
e 81 67 354
e 81 72 477
e 81 76 413
e 81 77 219
e 81 79 215
e 81 80 248
e 82 1 336
e 82 3 471
e 82 4 380
e 82 5 213
e 82 6 399
e 82 7 205
e 82 8 226
e 82 9 323
e 82 10 274
e 82 11 385
e 82 14 362
e 82 18 428
e 82 20 210
e 82 23 206
e 82 24 368
e 82 25 473
e 82 26 236
e 82 29 376
e 82 30 281
e 82 32 257
e 82 33 380
e 82 34 337
e 82 36 443
e 82 37 352
e 82 39 207
e 82 45 425
e 82 46 432
e 82 47 411
e 82 48 411
e 82 49 234
e 82 50 260
e 82 51 421
e 82 54 451
e 82 58 309
e 82 61 385
e 82 62 328
e 82 66 333
e 82 67 260
e 82 71 218
e 82 72 207
e 82 75 339
e 82 76 293
e 82 77 374
e 82 78 303
e 82 79 242
e 83 2 394
e 83 3 272
e 83 4 467
e 83 5 245
e 83 6 359
e 83 7 455
e 83 9 234
e 83 11 364
e 83 14 403
e 83 15 267
e 83 17 420
e 83 18 311
e 83 19 265
e 83 20 318
e 83 22 411
e 83 24 358
e 83 25 474
e 83 27 413
e 83 29 213
e 83 31 264
e 83 32 310
e 83 34 206
e 83 36 313
e 83 39 247
e 83 43 303
e 83 46 224
e 83 47 429
e 83 52 347
e 83 56 358
e 83 57 351
e 83 59 460
e 83 60 328
e 83 61 230
e 83 63 305
e 83 67 222
e 83 69 439
e 83 70 255
e 83 71 340
e 83 73 408
e 83 74 336
e 83 75 402
e 83 78 362
e 83 79 429
e 83 82 321
e 84 3 335
e 84 5 219
e 84 7 336
e 84 8 301
e 84 11 306
e 84 14 394
e 84 18 246
e 84 20 200
e 84 21 397
e 84 22 367
e 84 25 407
e 84 30 246
e 84 31 378
e 84 33 351
e 84 34 359
e 84 35 213
e 84 36 294
e 84 37 317
e 84 40 200
e 84 41 468
e 84 42 387
e 84 43 227
e 84 44 200
e 84 47 430
e 84 49 261
e 84 51 274
e 84 52 302
e 84 53 301
e 84 54 392
e 84 55 463
e 84 57 334
e 84 58 339
e 84 59 219
e 84 61 363
e 84 63 422
e 84 64 371
e 84 67 326
e 84 68 406
e 84 69 325
e 84 71 409
e 84 72 334
e 84 73 286
e 84 74 362
e 84 76 385
e 84 77 369
e 85 1 432
e 85 3 430
e 85 4 265
e 85 5 399
e 85 6 253
e 85 14 306
e 85 15 243
e 85 17 452
e 85 20 431
e 85 23 222
e 85 24 355
e 85 25 374
e 85 27 212
e 85 29 373
e 85 30 345
e 85 31 354
e 85 32 362
e 85 33 201
e 85 38 208
e 85 43 207
e 85 45 335
e 85 48 325
e 85 57 465
e 85 58 380
e 85 61 204
e 85 62 429
e 85 63 234
e 85 64 408
e 85 65 264
e 85 66 335
e 85 69 468
e 85 73 382
e 85 75 464
e 85 77 291
e 85 78 448
e 85 79 231
e 85 82 284
e 85 83 252
e 85 84 379
e 86 1 361
e 86 3 476
e 86 5 373
e 86 7 302
e 86 8 222
e 86 12 369
e 86 13 458
e 86 17 209
e 86 20 238
e 86 28 379
e 86 29 339
e 86 30 441
e 86 34 269
e 86 37 226
e 86 38 440
e 86 39 317
e 86 42 428
e 86 43 354
e 86 45 354
e 86 47 274
e 86 48 393
e 86 50 370
e 86 53 265
e 86 57 201
e 86 59 217
e 86 60 388
e 86 65 233
e 86 66 265
e 86 68 241
e 86 69 473
e 86 71 347
e 86 73 319
e 86 74 396
e 86 75 266
e 86 76 204
e 86 81 305
e 86 82 350
e 87 1 334
e 87 2 398
e 87 4 269
e 87 11 396
e 87 12 265
e 87 13 217
e 87 14 395
e 87 15 368
e 87 16 382
e 87 17 299
e 87 18 472
e 87 21 290
e 87 22 228
e 87 25 282
e 87 26 287
e 87 28 269
e 87 30 323
e 87 37 432
e 87 38 465
e 87 40 201
e 87 44 341
e 87 45 250
e 87 50 417
e 87 53 220
e 87 54 365
e 87 56 214
e 87 59 309
e 87 62 442
e 87 64 202
e 87 69 223
e 87 71 362
e 87 72 230
e 87 73 421
e 87 77 212
e 87 79 224
e 87 80 322
e 87 81 329
e 87 82 256
e 87 83 229
e 87 85 397
e 88 2 289
e 88 3 344
e 88 4 268
e 88 8 226
e 88 9 248
e 88 10 474
e 88 11 269
e 88 12 232
e 88 17 431
e 88 21 363
e 88 25 236
e 88 28 316
e 88 32 223
e 88 34 341
e 88 37 221
e 88 38 422
e 88 39 359
e 88 41 208
e 88 42 465
e 88 43 284
e 88 44 456
e 88 45 326
e 88 46 390
e 88 47 290
e 88 49 477
e 88 51 250
e 88 53 299
e 88 54 276
e 88 55 237
e 88 57 465
e 88 58 458
e 88 60 303
e 88 64 393
e 88 69 480
e 88 70 330
e 88 71 248
e 88 75 434
e 88 87 446
e 89 1 446
e 89 2 206
e 89 3 216
e 89 5 480
e 89 6 328
e 89 8 384
e 89 10 417
e 89 11 258
e 89 12 362
e 89 13 471
e 89 16 478
e 89 17 212
e 89 20 332
e 89 21 282
e 89 22 455
e 89 23 226
e 89 27 244
e 89 28 233
e 89 30 353
e 89 32 286
e 89 34 292
e 89 39 213
e 89 40 255
e 89 41 269
e 89 42 206
e 89 47 216
e 89 48 424
e 89 49 476
e 89 52 335
e 89 53 320
e 89 54 344
e 89 56 366
e 89 60 213
e 89 62 390
e 89 64 433
e 89 65 207
e 89 67 369
e 89 68 393
e 89 71 392
e 89 73 270
e 89 75 356
e 89 78 220
e 89 79 457
e 89 80 308
e 89 81 359
e 89 84 266
e 89 85 444
e 89 87 348
e 90 1 243
e 90 2 392
e 90 6 381
e 90 7 360
e 90 9 479
e 90 10 204
e 90 12 235
e 90 13 454
e 90 14 369
e 90 15 338
e 90 19 205
e 90 20 290
e 90 22 242
e 90 23 478
e 90 24 276
e 90 26 426
e 90 29 360
e 90 30 441
e 90 33 420
e 90 39 276
e 90 40 341
e 90 42 211
e 90 46 357
e 90 47 449
e 90 50 371
e 90 54 419
e 90 58 351
e 90 59 208
e 90 60 350
e 90 61 430
e 90 65 264
e 90 66 457
e 90 69 281
e 90 71 311
e 90 72 260
e 90 74 329
e 90 76 439
e 90 77 397
e 90 78 307
e 90 84 243
e 90 85 275
e 90 87 296
e 90 89 464
e 91 1 283
e 91 4 361
e 91 5 365
e 91 7 444
e 91 13 432
e 91 14 297
e 91 17 393
e 91 18 278
e 91 23 351
e 91 24 341
e 91 25 352
e 91 26 381
e 91 27 251
e 91 28 296
e 91 30 222
e 91 31 366
e 91 34 287
e 91 35 422
e 91 36 432
e 91 38 420
e 91 40 460
e 91 43 225
e 91 45 317
e 91 56 438
e 91 59 242
e 91 60 403
e 91 62 316
e 91 66 234
e 91 67 265
e 91 68 386
e 91 69 438
e 91 70 447
e 91 73 371
e 91 74 321
e 91 75 318
e 91 76 261
e 91 77 288
e 91 80 374
e 91 82 372
e 91 84 397
e 91 85 425
e 91 86 257
e 91 87 440
e 91 88 456
e 91 89 341
e 92 2 425
e 92 3 241
e 92 8 214
e 92 9 236
e 92 10 479
e 92 11 423
e 92 12 357
e 92 13 443
e 92 15 468
e 92 16 202
e 92 17 255
e 92 21 351
e 92 22 244
e 92 24 232
e 92 25 425
e 92 26 310
e 92 28 342
e 92 30 259
e 92 32 403
e 92 34 235
e 92 35 346
e 92 36 270
e 92 37 308
e 92 41 279
e 92 44 327
e 92 48 440
e 92 49 450
e 92 50 375
e 92 52 209
e 92 53 416
e 92 55 420
e 92 59 439
e 92 62 472
e 92 66 350
e 92 69 215
e 92 73 249
e 92 75 444
e 92 78 245
e 92 79 467
e 92 80 331
e 92 81 247
e 92 83 251
e 92 84 377
e 92 85 271
e 92 90 347
e 93 2 245
e 93 7 362
e 93 10 333
e 93 14 355
e 93 16 241
e 93 17 421
e 93 18 397
e 93 19 321
e 93 25 214
e 93 26 356
e 93 27 324
e 93 28 275
e 93 29 426
e 93 30 458
e 93 33 294
e 93 35 285
e 93 36 477
e 93 39 441
e 93 41 345
e 93 46 278
e 93 47 216
e 93 49 476
e 93 50 216
e 93 52 460
e 93 54 437
e 93 58 471
e 93 60 263
e 93 63 289
e 93 64 294
e 93 68 380
e 93 70 257
e 93 71 281
e 93 74 329
e 93 76 218
e 93 80 217
e 93 82 331
e 93 87 259
e 93 88 232
e 93 92 395
e 94 2 480
e 94 3 387
e 94 5 204
e 94 7 220
e 94 10 307
e 94 11 315
e 94 12 464
e 94 13 367
e 94 14 363
e 94 15 253
e 94 16 471
e 94 17 349
e 94 18 302
e 94 19 323
e 94 20 285
e 94 22 266
e 94 24 403
e 94 25 227
e 94 26 288
e 94 27 480
e 94 29 451
e 94 30 294
e 94 31 311
e 94 35 338
e 94 36 245
e 94 38 217
e 94 40 346
e 94 42 288
e 94 44 300
e 94 45 465
e 94 47 397
e 94 48 378
e 94 50 240
e 94 53 265
e 94 54 377
e 94 57 433
e 94 59 443
e 94 60 314
e 94 61 450
e 94 62 437
e 94 65 415
e 94 66 435
e 94 68 428
e 94 69 356
e 94 70 456
e 94 72 387
e 94 75 277
e 94 78 452
e 94 80 232
e 94 81 406
e 94 82 464
e 94 84 324
e 94 85 458
e 94 89 236
e 94 93 292
e 95 2 203
e 95 3 260
e 95 5 343
e 95 7 337
e 95 8 207
e 95 10 251
e 95 13 438
e 95 15 331
e 95 16 435
e 95 21 432
e 95 22 350
e 95 23 364
e 95 24 309
e 95 28 266
e 95 29 428
e 95 30 419
e 95 31 319
e 95 38 364
e 95 40 288
e 95 42 475
e 95 43 439
e 95 44 313
e 95 46 448
e 95 47 286
e 95 50 382
e 95 54 330
e 95 56 333
e 95 57 425
e 95 58 266
e 95 60 311
e 95 61 456
e 95 62 287
e 95 63 420
e 95 64 286
e 95 66 272
e 95 67 245
e 95 69 242
e 95 71 209
e 95 76 215
e 95 77 439
e 95 78 328
e 95 83 254
e 95 85 279
e 95 86 430
e 95 88 454
e 95 91 247
e 95 93 246
e 96 1 346
e 96 2 371
e 96 4 346
e 96 5 246
e 96 6 228
e 96 7 412
e 96 8 296
e 96 9 480
e 96 10 326
e 96 11 256
e 96 14 441
e 96 15 318
e 96 16 336
e 96 17 358
e 96 18 255
e 96 19 298
e 96 20 217
e 96 22 230
e 96 23 204
e 96 26 335
e 96 27 480
e 96 30 325
e 96 31 411
e 96 32 246
e 96 33 355
e 96 35 314
e 96 36 206
e 96 37 202
e 96 38 247
e 96 40 459
e 96 42 234
e 96 44 258
e 96 45 357
e 96 46 207
e 96 51 427
e 96 52 468
e 96 55 434
e 96 57 479
e 96 60 215
e 96 61 316
e 96 62 303
e 96 63 215
e 96 65 272
e 96 67 458
e 96 69 266
e 96 70 406
e 96 72 388
e 96 73 391
e 96 74 415
e 96 77 405
e 96 78 225
e 96 79 342
e 96 81 431
e 96 82 421
e 96 83 405
e 96 84 372
e 96 88 459
e 96 90 281
e 96 94 317
e 97 3 451
e 97 4 354
e 97 6 462
e 97 7 407
e 97 9 306
e 97 14 248
e 97 16 472
e 97 17 373
e 97 18 239
e 97 19 200
e 97 23 462
e 97 24 433
e 97 29 346
e 97 30 262
e 97 31 223
e 97 36 470
e 97 39 429
e 97 41 447
e 97 42 348
e 97 43 431
e 97 46 470
e 97 47 309
e 97 48 243
e 97 51 397
e 97 54 391
e 97 55 345
e 97 56 384
e 97 57 346
e 97 59 382
e 97 61 384
e 97 63 296
e 97 66 417
e 97 69 463
e 97 70 229
e 97 72 316
e 97 80 325
e 97 84 447
e 97 85 356
e 97 86 461
e 97 89 289
e 97 90 395
e 97 95 419
e 97 96 366
e 98 1 244
e 98 3 340
e 98 4 310
e 98 5 402
e 98 10 437
e 98 11 421
e 98 12 206
e 98 13 440
e 98 17 210
e 98 21 332
e 98 23 336
e 98 24 272
e 98 26 339
e 98 27 449
e 98 32 414
e 98 34 337
e 98 35 334
e 98 36 251
e 98 37 305
e 98 38 206
e 98 41 475
e 98 43 330
e 98 46 261
e 98 47 444
e 98 48 231
e 98 51 400
e 98 59 232
e 98 62 303
e 98 63 293
e 98 64 452
e 98 67 361
e 98 68 340
e 98 69 319
e 98 70 248
e 98 71 401
e 98 72 441
e 98 78 368
e 98 80 241
e 98 82 248
e 98 83 305
e 98 87 244
e 98 91 220
e 98 92 328
e 98 93 260
e 98 94 227
e 98 95 342
e 98 96 233
e 98 97 299
e 99 1 398
e 99 2 332
e 99 5 364
e 99 7 230
e 99 12 229
e 99 17 377
e 99 18 270
e 99 19 202
e 99 21 410
e 99 22 454
e 99 23 304
e 99 28 332
e 99 30 438
e 99 34 215
e 99 41 399
e 99 43 205
e 99 45 372
e 99 49 465
e 99 50 332
e 99 55 395
e 99 56 233
e 99 58 339
e 99 59 332
e 99 60 478
e 99 61 374
e 99 64 247
e 99 65 369
e 99 67 248
e 99 68 388
e 99 71 413
e 99 77 354
e 99 80 205
e 99 81 444
e 99 82 415
e 99 86 453
e 99 87 429
e 99 89 400
e 99 91 313
e 99 97 245
e 100 1 293
e 100 2 420
e 100 3 310
e 100 4 455
e 100 5 258
e 100 6 358
e 100 8 453
e 100 10 287
e 100 13 290
e 100 15 478
e 100 16 411
e 100 17 382
e 100 18 299
e 100 21 302
e 100 22 216
e 100 23 310
e 100 25 246
e 100 26 316
e 100 29 354
e 100 30 237
e 100 33 236
e 100 34 243
e 100 35 449
e 100 42 277
e 100 45 277
e 100 46 444
e 100 47 319
e 100 48 359
e 100 49 219
e 100 50 234
e 100 52 419
e 100 53 348
e 100 54 479
e 100 57 201
e 100 58 366
e 100 59 283
e 100 66 437
e 100 67 239
e 100 71 253
e 100 73 436
e 100 74 341
e 100 77 389
e 100 80 252
e 100 83 461
e 100 86 418
e 100 88 473
e 100 90 351
e 100 91 324
e 100 92 207
e 100 94 234
e 100 96 228
e 100 99 248